% Generated by MiniZinc 2.9.3
% Solver library: /home/void/Workspace-Research/Code/fzn-minicpp/minizinc
% Command line invocation: minizinc --solver org.minicpp.ml --compile --no-output-ozn rcpsp-sat.mzn dzn/J60_42_7.dzn -D makespan=59 -o fzn-sat/J60_42_7.fzn 

predicate minicpp_cumulative(array [int] of var int: s,array [int] of var int: d,array [int] of var int: r,var int: b);
array [1..2] of int: X_INTRODUCED_78_ = [1,-1];
array [1..48] of int: X_INTRODUCED_135_ = [7,2,6,1,9,3,5,2,9,4,8,8,3,3,5,6,3,2,8,1,2,8,1,3,3,9,7,3,4,7,6,10,1,2,1,6,3,5,7,4,1,3,2,4,10,10,5,10];
array [1..48] of int: X_INTRODUCED_136_ = [3,10,6,10,5,2,9,1,10,9,7,10,2,3,2,2,2,3,3,4,5,8,8,1,2,8,5,2,4,3,5,1,5,5,5,1,3,2,2,2,1,7,3,7,2,6,2,3];
array [1..45] of int: X_INTRODUCED_138_ = [7,5,2,8,2,5,3,7,7,4,6,9,3,6,7,4,5,10,2,7,1,3,3,4,9,4,10,1,1,3,8,9,9,5,6,5,6,7,10,10,3,8,2,1,7];
array [1..45] of int: X_INTRODUCED_139_ = [3,7,10,5,2,1,2,7,10,3,7,10,2,2,2,3,3,5,5,6,8,8,2,9,5,2,4,5,1,5,1,3,2,2,1,7,3,1,8,2,7,2,6,2,3];
array [1..42] of int: X_INTRODUCED_141_ = [8,9,7,10,1,4,8,3,1,2,2,9,8,9,6,7,6,2,7,10,2,6,3,5,7,8,2,7,3,10,10,9,7,8,3,8,4,4,6,7,10,10];
array [1..42] of int: X_INTRODUCED_142_ = [3,10,7,5,9,1,2,7,3,9,2,3,2,2,3,3,5,5,8,8,1,2,9,5,2,4,4,3,5,1,5,5,5,1,2,2,2,7,3,2,7,6];
array [1..46] of int: X_INTRODUCED_144_ = [7,7,3,5,2,6,9,9,10,4,8,8,10,6,6,3,10,1,3,9,9,7,6,7,7,7,4,7,5,6,8,8,5,2,3,6,5,2,2,9,7,3,3,5,2,9];
array [1..46] of int: X_INTRODUCED_145_ = [3,10,6,10,5,9,1,2,7,10,3,9,7,10,2,2,2,2,3,4,5,5,6,8,8,1,2,8,5,2,4,3,5,5,5,1,2,2,3,1,7,1,8,7,2,3];
var 0..267: X_INTRODUCED_16_;
var 0..267: X_INTRODUCED_17_;
var 0..267: X_INTRODUCED_18_;
var 0..267: X_INTRODUCED_19_;
var 0..267: X_INTRODUCED_20_;
var 0..267: X_INTRODUCED_21_;
var 0..267: X_INTRODUCED_22_;
var 0..267: X_INTRODUCED_23_;
var 0..267: X_INTRODUCED_24_;
var 0..267: X_INTRODUCED_25_;
var 0..267: X_INTRODUCED_26_;
var 0..267: X_INTRODUCED_27_;
var 0..267: X_INTRODUCED_28_;
var 0..267: X_INTRODUCED_29_;
var 0..267: X_INTRODUCED_30_;
var 0..267: X_INTRODUCED_31_;
var 0..267: X_INTRODUCED_32_;
var 0..267: X_INTRODUCED_33_;
var 0..267: X_INTRODUCED_34_;
var 0..267: X_INTRODUCED_35_;
var 0..267: X_INTRODUCED_36_;
var 0..267: X_INTRODUCED_37_;
var 0..267: X_INTRODUCED_38_;
var 0..267: X_INTRODUCED_39_;
var 0..267: X_INTRODUCED_40_;
var 0..267: X_INTRODUCED_41_;
var 0..267: X_INTRODUCED_42_;
var 0..267: X_INTRODUCED_43_;
var 0..267: X_INTRODUCED_44_;
var 0..267: X_INTRODUCED_45_;
var 0..267: X_INTRODUCED_46_;
var 0..267: X_INTRODUCED_47_;
var 0..267: X_INTRODUCED_48_;
var 0..267: X_INTRODUCED_49_;
var 0..267: X_INTRODUCED_50_;
var 0..267: X_INTRODUCED_51_;
var 0..267: X_INTRODUCED_52_;
var 0..267: X_INTRODUCED_53_;
var 0..267: X_INTRODUCED_54_;
var 0..267: X_INTRODUCED_55_;
var 0..267: X_INTRODUCED_56_;
var 0..267: X_INTRODUCED_57_;
var 0..267: X_INTRODUCED_58_;
var 0..267: X_INTRODUCED_59_;
var 0..267: X_INTRODUCED_60_;
var 0..267: X_INTRODUCED_61_;
var 0..267: X_INTRODUCED_62_;
var 0..267: X_INTRODUCED_63_;
var 0..267: X_INTRODUCED_64_;
var 0..267: X_INTRODUCED_65_;
var 0..267: X_INTRODUCED_66_;
var 0..267: X_INTRODUCED_67_;
var 0..267: X_INTRODUCED_68_;
var 0..267: X_INTRODUCED_69_;
var 0..267: X_INTRODUCED_70_;
var 0..267: X_INTRODUCED_71_;
var 0..267: X_INTRODUCED_72_;
var 0..53: X_INTRODUCED_73_;
var 0..57: X_INTRODUCED_74_;
var 0..56: X_INTRODUCED_75_;
array [1..60] of var int: s:: output_array([1..60]) = [X_INTRODUCED_16_,X_INTRODUCED_17_,X_INTRODUCED_18_,X_INTRODUCED_19_,X_INTRODUCED_20_,X_INTRODUCED_21_,X_INTRODUCED_22_,X_INTRODUCED_23_,X_INTRODUCED_24_,X_INTRODUCED_25_,X_INTRODUCED_26_,X_INTRODUCED_27_,X_INTRODUCED_28_,X_INTRODUCED_29_,X_INTRODUCED_30_,X_INTRODUCED_31_,X_INTRODUCED_32_,X_INTRODUCED_33_,X_INTRODUCED_34_,X_INTRODUCED_35_,X_INTRODUCED_36_,X_INTRODUCED_37_,X_INTRODUCED_38_,X_INTRODUCED_39_,X_INTRODUCED_40_,X_INTRODUCED_41_,X_INTRODUCED_42_,X_INTRODUCED_43_,X_INTRODUCED_44_,X_INTRODUCED_45_,X_INTRODUCED_46_,X_INTRODUCED_47_,X_INTRODUCED_48_,X_INTRODUCED_49_,X_INTRODUCED_50_,X_INTRODUCED_51_,X_INTRODUCED_52_,X_INTRODUCED_53_,X_INTRODUCED_54_,X_INTRODUCED_55_,X_INTRODUCED_56_,X_INTRODUCED_57_,X_INTRODUCED_58_,X_INTRODUCED_59_,X_INTRODUCED_60_,X_INTRODUCED_61_,X_INTRODUCED_62_,X_INTRODUCED_63_,X_INTRODUCED_64_,X_INTRODUCED_65_,X_INTRODUCED_66_,X_INTRODUCED_67_,X_INTRODUCED_68_,X_INTRODUCED_69_,X_INTRODUCED_70_,X_INTRODUCED_71_,X_INTRODUCED_72_,X_INTRODUCED_73_,X_INTRODUCED_74_,X_INTRODUCED_75_];
array [1..48] of var int: X_INTRODUCED_137_ ::var_is_introduced  = [X_INTRODUCED_16_,X_INTRODUCED_17_,X_INTRODUCED_18_,X_INTRODUCED_20_,X_INTRODUCED_21_,X_INTRODUCED_22_,X_INTRODUCED_23_,X_INTRODUCED_24_,X_INTRODUCED_27_,X_INTRODUCED_29_,X_INTRODUCED_30_,X_INTRODUCED_31_,X_INTRODUCED_32_,X_INTRODUCED_33_,X_INTRODUCED_34_,X_INTRODUCED_35_,X_INTRODUCED_36_,X_INTRODUCED_37_,X_INTRODUCED_38_,X_INTRODUCED_39_,X_INTRODUCED_40_,X_INTRODUCED_43_,X_INTRODUCED_44_,X_INTRODUCED_45_,X_INTRODUCED_46_,X_INTRODUCED_47_,X_INTRODUCED_49_,X_INTRODUCED_50_,X_INTRODUCED_51_,X_INTRODUCED_53_,X_INTRODUCED_54_,X_INTRODUCED_55_,X_INTRODUCED_56_,X_INTRODUCED_57_,X_INTRODUCED_58_,X_INTRODUCED_59_,X_INTRODUCED_60_,X_INTRODUCED_61_,X_INTRODUCED_62_,X_INTRODUCED_64_,X_INTRODUCED_65_,X_INTRODUCED_66_,X_INTRODUCED_67_,X_INTRODUCED_71_,X_INTRODUCED_72_,X_INTRODUCED_73_,X_INTRODUCED_74_,X_INTRODUCED_75_];
array [1..45] of var int: X_INTRODUCED_140_ ::var_is_introduced  = [X_INTRODUCED_16_,X_INTRODUCED_19_,X_INTRODUCED_20_,X_INTRODUCED_21_,X_INTRODUCED_22_,X_INTRODUCED_24_,X_INTRODUCED_25_,X_INTRODUCED_26_,X_INTRODUCED_27_,X_INTRODUCED_28_,X_INTRODUCED_30_,X_INTRODUCED_31_,X_INTRODUCED_32_,X_INTRODUCED_34_,X_INTRODUCED_36_,X_INTRODUCED_37_,X_INTRODUCED_38_,X_INTRODUCED_40_,X_INTRODUCED_41_,X_INTRODUCED_42_,X_INTRODUCED_43_,X_INTRODUCED_44_,X_INTRODUCED_46_,X_INTRODUCED_48_,X_INTRODUCED_49_,X_INTRODUCED_50_,X_INTRODUCED_52_,X_INTRODUCED_54_,X_INTRODUCED_55_,X_INTRODUCED_58_,X_INTRODUCED_59_,X_INTRODUCED_60_,X_INTRODUCED_61_,X_INTRODUCED_62_,X_INTRODUCED_65_,X_INTRODUCED_66_,X_INTRODUCED_67_,X_INTRODUCED_68_,X_INTRODUCED_69_,X_INTRODUCED_70_,X_INTRODUCED_71_,X_INTRODUCED_72_,X_INTRODUCED_73_,X_INTRODUCED_74_,X_INTRODUCED_75_];
array [1..42] of var int: X_INTRODUCED_143_ ::var_is_introduced  = [X_INTRODUCED_16_,X_INTRODUCED_17_,X_INTRODUCED_19_,X_INTRODUCED_21_,X_INTRODUCED_23_,X_INTRODUCED_24_,X_INTRODUCED_25_,X_INTRODUCED_26_,X_INTRODUCED_28_,X_INTRODUCED_29_,X_INTRODUCED_32_,X_INTRODUCED_33_,X_INTRODUCED_35_,X_INTRODUCED_36_,X_INTRODUCED_37_,X_INTRODUCED_38_,X_INTRODUCED_40_,X_INTRODUCED_41_,X_INTRODUCED_43_,X_INTRODUCED_44_,X_INTRODUCED_45_,X_INTRODUCED_46_,X_INTRODUCED_48_,X_INTRODUCED_49_,X_INTRODUCED_50_,X_INTRODUCED_51_,X_INTRODUCED_52_,X_INTRODUCED_53_,X_INTRODUCED_54_,X_INTRODUCED_55_,X_INTRODUCED_56_,X_INTRODUCED_57_,X_INTRODUCED_58_,X_INTRODUCED_59_,X_INTRODUCED_61_,X_INTRODUCED_62_,X_INTRODUCED_64_,X_INTRODUCED_66_,X_INTRODUCED_67_,X_INTRODUCED_70_,X_INTRODUCED_71_,X_INTRODUCED_73_];
array [1..46] of var int: X_INTRODUCED_146_ ::var_is_introduced  = [X_INTRODUCED_16_,X_INTRODUCED_17_,X_INTRODUCED_18_,X_INTRODUCED_20_,X_INTRODUCED_21_,X_INTRODUCED_23_,X_INTRODUCED_24_,X_INTRODUCED_25_,X_INTRODUCED_26_,X_INTRODUCED_27_,X_INTRODUCED_28_,X_INTRODUCED_29_,X_INTRODUCED_30_,X_INTRODUCED_31_,X_INTRODUCED_32_,X_INTRODUCED_34_,X_INTRODUCED_35_,X_INTRODUCED_36_,X_INTRODUCED_38_,X_INTRODUCED_39_,X_INTRODUCED_40_,X_INTRODUCED_41_,X_INTRODUCED_42_,X_INTRODUCED_43_,X_INTRODUCED_44_,X_INTRODUCED_45_,X_INTRODUCED_46_,X_INTRODUCED_47_,X_INTRODUCED_49_,X_INTRODUCED_50_,X_INTRODUCED_52_,X_INTRODUCED_53_,X_INTRODUCED_56_,X_INTRODUCED_57_,X_INTRODUCED_58_,X_INTRODUCED_59_,X_INTRODUCED_61_,X_INTRODUCED_62_,X_INTRODUCED_63_,X_INTRODUCED_65_,X_INTRODUCED_66_,X_INTRODUCED_68_,X_INTRODUCED_69_,X_INTRODUCED_71_,X_INTRODUCED_74_,X_INTRODUCED_75_];
constraint int_lin_le(X_INTRODUCED_78_,[X_INTRODUCED_16_,X_INTRODUCED_28_],-3);
constraint int_lin_le(X_INTRODUCED_78_,[X_INTRODUCED_16_,X_INTRODUCED_58_],-3);
constraint int_lin_le(X_INTRODUCED_78_,[X_INTRODUCED_16_,X_INTRODUCED_68_],-3);
constraint int_lin_le(X_INTRODUCED_78_,[X_INTRODUCED_17_,X_INTRODUCED_21_],-10);
constraint int_lin_le(X_INTRODUCED_78_,[X_INTRODUCED_17_,X_INTRODUCED_22_],-10);
constraint int_lin_le(X_INTRODUCED_78_,[X_INTRODUCED_17_,X_INTRODUCED_35_],-10);
constraint int_lin_le(X_INTRODUCED_78_,[X_INTRODUCED_18_,X_INTRODUCED_19_],-6);
constraint int_lin_le(X_INTRODUCED_78_,[X_INTRODUCED_18_,X_INTRODUCED_20_],-6);
constraint int_lin_le(X_INTRODUCED_78_,[X_INTRODUCED_18_,X_INTRODUCED_26_],-6);
constraint int_lin_le(X_INTRODUCED_78_,[X_INTRODUCED_19_,X_INTRODUCED_31_],-7);
constraint int_lin_le(X_INTRODUCED_78_,[X_INTRODUCED_19_,X_INTRODUCED_41_],-7);
constraint int_lin_le(X_INTRODUCED_78_,[X_INTRODUCED_19_,X_INTRODUCED_45_],-7);
constraint int_lin_le(X_INTRODUCED_78_,[X_INTRODUCED_20_,X_INTRODUCED_25_],-10);
constraint int_lin_le(X_INTRODUCED_78_,[X_INTRODUCED_20_,X_INTRODUCED_30_],-10);
constraint int_lin_le(X_INTRODUCED_78_,[X_INTRODUCED_20_,X_INTRODUCED_62_],-10);
constraint int_lin_le(X_INTRODUCED_78_,[X_INTRODUCED_21_,X_INTRODUCED_24_],-5);
constraint int_lin_le(X_INTRODUCED_78_,[X_INTRODUCED_21_,X_INTRODUCED_40_],-5);
constraint int_lin_le(X_INTRODUCED_78_,[X_INTRODUCED_21_,X_INTRODUCED_53_],-5);
constraint int_lin_le(X_INTRODUCED_78_,[X_INTRODUCED_22_,X_INTRODUCED_23_],-2);
constraint int_lin_le(X_INTRODUCED_78_,[X_INTRODUCED_22_,X_INTRODUCED_27_],-2);
constraint int_lin_le(X_INTRODUCED_78_,[X_INTRODUCED_22_,X_INTRODUCED_34_],-2);
constraint int_lin_le(X_INTRODUCED_78_,[X_INTRODUCED_23_,X_INTRODUCED_38_],-9);
constraint int_lin_le(X_INTRODUCED_78_,[X_INTRODUCED_23_,X_INTRODUCED_43_],-9);
constraint int_lin_le(X_INTRODUCED_78_,[X_INTRODUCED_23_,X_INTRODUCED_52_],-9);
constraint int_lin_le(X_INTRODUCED_78_,[X_INTRODUCED_24_,X_INTRODUCED_29_],-1);
constraint int_lin_le(X_INTRODUCED_78_,[X_INTRODUCED_24_,X_INTRODUCED_47_],-1);
constraint int_lin_le(X_INTRODUCED_78_,[X_INTRODUCED_24_,X_INTRODUCED_56_],-1);
constraint int_lin_le(X_INTRODUCED_78_,[X_INTRODUCED_25_,X_INTRODUCED_38_],-2);
constraint int_lin_le(X_INTRODUCED_78_,[X_INTRODUCED_25_,X_INTRODUCED_46_],-2);
constraint int_lin_le(X_INTRODUCED_78_,[X_INTRODUCED_25_,X_INTRODUCED_59_],-2);
constraint int_lin_le(X_INTRODUCED_78_,[X_INTRODUCED_26_,X_INTRODUCED_33_],-7);
constraint int_lin_le(X_INTRODUCED_78_,[X_INTRODUCED_26_,X_INTRODUCED_50_],-7);
constraint int_lin_le(X_INTRODUCED_78_,[X_INTRODUCED_26_,X_INTRODUCED_52_],-7);
constraint int_lin_le(X_INTRODUCED_78_,[X_INTRODUCED_27_,X_INTRODUCED_30_],-10);
constraint int_lin_le(X_INTRODUCED_78_,[X_INTRODUCED_27_,X_INTRODUCED_33_],-10);
constraint int_lin_le(X_INTRODUCED_78_,[X_INTRODUCED_27_,X_INTRODUCED_57_],-10);
constraint int_lin_le(X_INTRODUCED_78_,[X_INTRODUCED_28_,X_INTRODUCED_36_],-3);
constraint int_lin_le(X_INTRODUCED_78_,[X_INTRODUCED_28_,X_INTRODUCED_44_],-3);
constraint int_lin_le(X_INTRODUCED_78_,[X_INTRODUCED_28_,X_INTRODUCED_62_],-3);
constraint int_lin_le(X_INTRODUCED_78_,[X_INTRODUCED_29_,X_INTRODUCED_32_],-9);
constraint int_lin_le(X_INTRODUCED_78_,[X_INTRODUCED_29_,X_INTRODUCED_38_],-9);
constraint int_lin_le(X_INTRODUCED_78_,[X_INTRODUCED_29_,X_INTRODUCED_49_],-9);
constraint int_lin_le(X_INTRODUCED_78_,[X_INTRODUCED_30_,X_INTRODUCED_44_],-7);
constraint int_lin_le(X_INTRODUCED_78_,[X_INTRODUCED_30_,X_INTRODUCED_49_],-7);
constraint int_lin_le(X_INTRODUCED_78_,[X_INTRODUCED_30_,X_INTRODUCED_70_],-7);
constraint int_lin_le(X_INTRODUCED_78_,[X_INTRODUCED_31_,X_INTRODUCED_47_],-10);
constraint int_lin_le(X_INTRODUCED_78_,[X_INTRODUCED_31_,X_INTRODUCED_55_],-10);
constraint int_lin_le(X_INTRODUCED_78_,[X_INTRODUCED_32_,X_INTRODUCED_42_],-2);
constraint int_lin_le(X_INTRODUCED_78_,[X_INTRODUCED_32_,X_INTRODUCED_44_],-2);
constraint int_lin_le(X_INTRODUCED_78_,[X_INTRODUCED_32_,X_INTRODUCED_57_],-2);
constraint int_lin_le(X_INTRODUCED_78_,[X_INTRODUCED_33_,X_INTRODUCED_36_],-3);
constraint int_lin_le(X_INTRODUCED_78_,[X_INTRODUCED_33_,X_INTRODUCED_58_],-3);
constraint int_lin_le(X_INTRODUCED_78_,[X_INTRODUCED_34_,X_INTRODUCED_36_],-2);
constraint int_lin_le(X_INTRODUCED_78_,[X_INTRODUCED_34_,X_INTRODUCED_41_],-2);
constraint int_lin_le(X_INTRODUCED_78_,[X_INTRODUCED_34_,X_INTRODUCED_66_],-2);
constraint int_lin_le(X_INTRODUCED_78_,[X_INTRODUCED_35_,X_INTRODUCED_46_],-2);
constraint int_lin_le(X_INTRODUCED_78_,[X_INTRODUCED_35_,X_INTRODUCED_54_],-2);
constraint int_lin_le(X_INTRODUCED_78_,[X_INTRODUCED_35_,X_INTRODUCED_66_],-2);
constraint int_lin_le(X_INTRODUCED_78_,[X_INTRODUCED_36_,X_INTRODUCED_37_],-2);
constraint int_lin_le(X_INTRODUCED_78_,[X_INTRODUCED_36_,X_INTRODUCED_39_],-2);
constraint int_lin_le(X_INTRODUCED_78_,[X_INTRODUCED_36_,X_INTRODUCED_45_],-2);
constraint int_lin_le(X_INTRODUCED_78_,[X_INTRODUCED_37_,X_INTRODUCED_42_],-3);
constraint int_lin_le(X_INTRODUCED_78_,[X_INTRODUCED_37_,X_INTRODUCED_51_],-3);
constraint int_lin_le(X_INTRODUCED_78_,[X_INTRODUCED_37_,X_INTRODUCED_65_],-3);
constraint int_lin_le(X_INTRODUCED_78_,[X_INTRODUCED_38_,X_INTRODUCED_39_],-3);
constraint int_lin_le(X_INTRODUCED_78_,[X_INTRODUCED_38_,X_INTRODUCED_42_],-3);
constraint int_lin_le(X_INTRODUCED_78_,[X_INTRODUCED_38_,X_INTRODUCED_60_],-3);
constraint int_lin_le(X_INTRODUCED_78_,[X_INTRODUCED_39_,X_INTRODUCED_65_],-4);
constraint int_lin_le(X_INTRODUCED_78_,[X_INTRODUCED_40_,X_INTRODUCED_46_],-5);
constraint int_lin_le(X_INTRODUCED_78_,[X_INTRODUCED_40_,X_INTRODUCED_48_],-5);
constraint int_lin_le(X_INTRODUCED_78_,[X_INTRODUCED_41_,X_INTRODUCED_47_],-5);
constraint int_lin_le(X_INTRODUCED_78_,[X_INTRODUCED_41_,X_INTRODUCED_48_],-5);
constraint int_lin_le(X_INTRODUCED_78_,[X_INTRODUCED_41_,X_INTRODUCED_51_],-5);
constraint int_lin_le(X_INTRODUCED_78_,[X_INTRODUCED_42_,X_INTRODUCED_67_],-6);
constraint int_lin_le(X_INTRODUCED_78_,[X_INTRODUCED_42_,X_INTRODUCED_69_],-6);
constraint int_lin_le(X_INTRODUCED_78_,[X_INTRODUCED_43_,X_INTRODUCED_53_],-8);
constraint int_lin_le(X_INTRODUCED_78_,[X_INTRODUCED_43_,X_INTRODUCED_64_],-8);
constraint int_lin_le(X_INTRODUCED_78_,[X_INTRODUCED_44_,X_INTRODUCED_59_],-8);
constraint int_lin_le(X_INTRODUCED_78_,[X_INTRODUCED_44_,X_INTRODUCED_75_],-8);
constraint int_lin_le(X_INTRODUCED_78_,[X_INTRODUCED_45_,X_INTRODUCED_49_],-1);
constraint int_lin_le(X_INTRODUCED_78_,[X_INTRODUCED_45_,X_INTRODUCED_56_],-1);
constraint int_lin_le(X_INTRODUCED_78_,[X_INTRODUCED_45_,X_INTRODUCED_61_],-1);
constraint int_lin_le(X_INTRODUCED_78_,[X_INTRODUCED_46_,X_INTRODUCED_51_],-2);
constraint int_lin_le(X_INTRODUCED_78_,[X_INTRODUCED_46_,X_INTRODUCED_68_],-2);
constraint int_lin_le(X_INTRODUCED_78_,[X_INTRODUCED_47_,X_INTRODUCED_57_],-8);
constraint int_lin_le(X_INTRODUCED_78_,[X_INTRODUCED_47_,X_INTRODUCED_62_],-8);
constraint int_lin_le(X_INTRODUCED_78_,[X_INTRODUCED_47_,X_INTRODUCED_71_],-8);
constraint int_lin_le(X_INTRODUCED_78_,[X_INTRODUCED_48_,X_INTRODUCED_54_],-9);
constraint int_lin_le(X_INTRODUCED_78_,[X_INTRODUCED_48_,X_INTRODUCED_61_],-9);
constraint int_lin_le(X_INTRODUCED_78_,[X_INTRODUCED_48_,X_INTRODUCED_64_],-9);
constraint int_lin_le(X_INTRODUCED_78_,[X_INTRODUCED_49_,X_INTRODUCED_74_],-5);
constraint int_lin_le(X_INTRODUCED_78_,[X_INTRODUCED_50_,X_INTRODUCED_53_],-2);
constraint int_lin_le(X_INTRODUCED_78_,[X_INTRODUCED_50_,X_INTRODUCED_58_],-2);
constraint int_lin_le(X_INTRODUCED_78_,[X_INTRODUCED_51_,X_INTRODUCED_55_],-4);
constraint int_lin_le(X_INTRODUCED_78_,[X_INTRODUCED_51_,X_INTRODUCED_71_],-4);
constraint int_lin_le(X_INTRODUCED_78_,[X_INTRODUCED_52_,X_INTRODUCED_63_],-4);
constraint int_lin_le(X_INTRODUCED_78_,[X_INTRODUCED_53_,X_INTRODUCED_54_],-3);
constraint int_lin_le(X_INTRODUCED_78_,[X_INTRODUCED_53_,X_INTRODUCED_60_],-3);
constraint int_lin_le(X_INTRODUCED_78_,[X_INTRODUCED_53_,X_INTRODUCED_65_],-3);
constraint int_lin_le(X_INTRODUCED_78_,[X_INTRODUCED_54_,X_INTRODUCED_55_],-5);
constraint int_lin_le(X_INTRODUCED_78_,[X_INTRODUCED_54_,X_INTRODUCED_56_],-5);
constraint int_lin_le(X_INTRODUCED_78_,[X_INTRODUCED_54_,X_INTRODUCED_59_],-5);
constraint int_lin_le(X_INTRODUCED_78_,[X_INTRODUCED_55_,X_INTRODUCED_73_],-1);
constraint int_lin_le(X_INTRODUCED_78_,[X_INTRODUCED_56_,X_INTRODUCED_67_],-5);
constraint int_lin_le(X_INTRODUCED_78_,[X_INTRODUCED_56_,X_INTRODUCED_72_],-5);
constraint int_lin_le(X_INTRODUCED_78_,[X_INTRODUCED_57_,X_INTRODUCED_64_],-5);
constraint int_lin_le(X_INTRODUCED_78_,[X_INTRODUCED_58_,X_INTRODUCED_61_],-5);
constraint int_lin_le(X_INTRODUCED_78_,[X_INTRODUCED_58_,X_INTRODUCED_63_],-5);
constraint int_lin_le(X_INTRODUCED_78_,[X_INTRODUCED_58_,X_INTRODUCED_67_],-5);
constraint int_lin_le(X_INTRODUCED_78_,[X_INTRODUCED_59_,X_INTRODUCED_69_],-1);
constraint int_lin_le(X_INTRODUCED_78_,[X_INTRODUCED_60_,X_INTRODUCED_63_],-3);
constraint int_lin_le(X_INTRODUCED_78_,[X_INTRODUCED_60_,X_INTRODUCED_71_],-3);
constraint int_lin_le(X_INTRODUCED_78_,[X_INTRODUCED_61_,X_INTRODUCED_70_],-2);
constraint int_lin_le(X_INTRODUCED_78_,[X_INTRODUCED_62_,X_INTRODUCED_73_],-2);
constraint int_lin_le(X_INTRODUCED_78_,[X_INTRODUCED_63_,X_INTRODUCED_66_],-3);
constraint int_lin_le(X_INTRODUCED_78_,[X_INTRODUCED_64_,X_INTRODUCED_68_],-2);
constraint int_lin_le(X_INTRODUCED_78_,[X_INTRODUCED_65_,X_INTRODUCED_74_],-1);
constraint int_lin_le(X_INTRODUCED_78_,[X_INTRODUCED_66_,X_INTRODUCED_69_],-7);
constraint int_lin_le(X_INTRODUCED_78_,[X_INTRODUCED_66_,X_INTRODUCED_70_],-7);
constraint int_lin_le(X_INTRODUCED_78_,[X_INTRODUCED_67_,X_INTRODUCED_75_],-3);
constraint int_lin_le(X_INTRODUCED_78_,[X_INTRODUCED_68_,X_INTRODUCED_72_],-1);
constraint int_lin_le(X_INTRODUCED_78_,[X_INTRODUCED_69_,X_INTRODUCED_74_],-8);
constraint int_lin_le(X_INTRODUCED_78_,[X_INTRODUCED_70_,X_INTRODUCED_72_],-2);
constraint int_lin_le(X_INTRODUCED_78_,[X_INTRODUCED_71_,X_INTRODUCED_73_],-7);
constraint int_lin_le(X_INTRODUCED_78_,[X_INTRODUCED_72_,X_INTRODUCED_75_],-2);
constraint minicpp_cumulative(X_INTRODUCED_137_,X_INTRODUCED_136_,X_INTRODUCED_135_,25);
constraint minicpp_cumulative(X_INTRODUCED_140_,X_INTRODUCED_139_,X_INTRODUCED_138_,25);
constraint minicpp_cumulative(X_INTRODUCED_143_,X_INTRODUCED_142_,X_INTRODUCED_141_,30);
constraint minicpp_cumulative(X_INTRODUCED_146_,X_INTRODUCED_145_,X_INTRODUCED_144_,30);
solve :: int_search(s,smallest,indomain_min,complete) satisfy;
